NAME          BLANK   
ROWS
 N  OBJROW
 L  R0000000
COLUMNS
    C0000000  OBJROW     -930.         R0000000  556.        
    C0000001  OBJROW     -550.         R0000000  959.        
    C0000002  OBJROW     -285.         R0000000  828.        
    C0000003  OBJROW     -909.         R0000000  839.        
    C0000004  OBJROW     -643.         R0000000  35.         
    C0000005  OBJROW     -417.         R0000000  993.        
    C0000006  OBJROW     -138.         R0000000  127.        
    C0000007  OBJROW     -216.         R0000000  781.        
    C0000008  OBJROW     -537.         R0000000  991.        
    C0000009  OBJROW     -107.         R0000000  550.        
    C0000010  OBJROW     -543.         R0000000  51.         
    C0000011  OBJROW     -969.         R0000000  845.        
    C0000012  OBJROW     -530.         R0000000  767.        
    C0000013  OBJROW     -374.         R0000000  505.        
    C0000014  OBJROW     -874.         R0000000  521.        
    C0000015  OBJROW     -121.         R0000000  16.         
RHS
    RHS       R0000000  13735.      
BOUNDS
 BV BOUND     C0000000  1.          
 BV BOUND     C0000001  1.          
 BV BOUND     C0000002  1.          
 BV BOUND     C0000003  1.          
 BV BOUND     C0000004  1.          
 BV BOUND     C0000005  1.          
 BV BOUND     C0000006  1.          
 BV BOUND     C0000007  1.          
 BV BOUND     C0000008  1.          
 BV BOUND     C0000009  1.          
 BV BOUND     C0000010  1.          
 BV BOUND     C0000011  1.          
 BV BOUND     C0000012  1.          
 BV BOUND     C0000013  1.          
 BV BOUND     C0000014  1.          
 BV BOUND     C0000015  1.          
ENDATA
